(declare-fun Oid (Int) Int)
(declare-fun customer_name (Int) String)
(declare-fun Sales_Id (Int) Int)
(declare-fun customerID (Int) String)
(declare-fun customerPhone (Int) String)
(define-fun Person ((o Int)) Bool true)

(assert 
    (forall ((o Int)) (=> (Person o)
        (and 
            (> (str.len (customer_name (Oid o))) 10)
            (str.in.re (customer_name (Oid o)) (re.* (re.union (re.range "A" "Z") (re.range "a" "z"))))
        )
    ))
)

(assert
    (forall ((o Int)) (=> (Person o)
        (and 
            (= (str.len (customerPhone (Oid o))) 10)
            (= (str.at (customerPhone (Oid o)) 0) "9")
            (str.in.re (str.substr (customerPhone (Oid o)) 1 9) (re.* (re.range "0" "9")))
        )
    ))
)

(assert
    (forall ((o Int)) (=> (Person o)
        (and 
            (= (str.len (customerID (Oid o))) 4)
            (str.in.re (customerID (Oid o)) (re.* (re.union (re.range "A" "Z") (re.range "0" "9"))))
        )
    ))
)

(assert
    (forall ((o Int)) (=> (Person o)
        (and 
            (> (Sales_Id (Oid o)) 9999)
            (< (Sales_Id (Oid o)) 100000)
        )
    ))
)

(assert (exists ((o Int)) (Person o)))

(assert (distinct 
    (customer_name (Oid 1)) 
    (customerID (Oid 1)) 
    (customerPhone (Oid 1)) 
    (customer_name (Oid 2)) 
    (customerID (Oid 2)) 
    (customerPhone (Oid 2)) 
    (customer_name (Oid 3)) 
    (customerID (Oid 3)) 
    (customerPhone (Oid 3)) 
    (customer_name (Oid 4)) 
    (customerID (Oid 4)) 
    (customerPhone (Oid 4)) 
    (customer_name (Oid 5)) 
    (customerID (Oid 5)) 
    (customerPhone (Oid 5)) 
    (customer_name (Oid 6)) 
    (customerID (Oid 6)) 
    (customerPhone (Oid 6)) 
    (customer_name (Oid 7)) 
    (customerID (Oid 7)) 
    (customerPhone (Oid 7)) 
    (customer_name (Oid 8)) 
    (customerID (Oid 8)) 
    (customerPhone (Oid 8)) 
    (customer_name (Oid 9)) 
    (customerID (Oid 9)) 
    (customerPhone (Oid 9)) 
    (customer_name (Oid 10)) 
    (customerID (Oid 10)) 
    (customerPhone (Oid 10)) 
    (customer_name (Oid 11)) 
    (customerID (Oid 11)) 
    (customerPhone (Oid 11)) 
    (customer_name (Oid 12)) 
    (customerID (Oid 12)) 
    (customerPhone (Oid 12)) 
    (customer_name (Oid 13)) 
    (customerID (Oid 13)) 
    (customerPhone (Oid 13)) 
    (customer_name (Oid 14)) 
    (customerID (Oid 14)) 
    (customerPhone (Oid 14)) 
    (customer_name (Oid 15)) 
    (customerID (Oid 15)) 
    (customerPhone (Oid 15)) 
))

(assert (distinct
    (Sales_Id (Oid 1))
    (Sales_Id (Oid 2))
    (Sales_Id (Oid 3))
    (Sales_Id (Oid 4))
    (Sales_Id (Oid 5))
    (Sales_Id (Oid 6))
    (Sales_Id (Oid 7))
    (Sales_Id (Oid 8))
    (Sales_Id (Oid 9))
    (Sales_Id (Oid 10))
    (Sales_Id (Oid 11))
    (Sales_Id (Oid 12))
    (Sales_Id (Oid 13))
    (Sales_Id (Oid 14))
    (Sales_Id (Oid 15))
))

(check-sat)
(get-value ((customer_name (Oid 1))(Sales_Id (Oid 1))(customerID (Oid 1))(customerPhone (Oid 1))))
(get-value ((customer_name (Oid 2))(Sales_Id (Oid 2))(customerID (Oid 2))(customerPhone (Oid 2))))
(get-value ((customer_name (Oid 3))(Sales_Id (Oid 3))(customerID (Oid 3))(customerPhone (Oid 3))))
(get-value ((customer_name (Oid 4))(Sales_Id (Oid 4))(customerID (Oid 4))(customerPhone (Oid 4))))
(get-value ((customer_name (Oid 5))(Sales_Id (Oid 5))(customerID (Oid 5))(customerPhone (Oid 5))))
